Route 1: 168 119 22 38 166 78 98 102 8 191 69 172 97 150 151 53 27 185 56 181 85 55 26 140 37 180 76 43 75 31 163
Route 2: 17 64 198 137 174 121 34 157 164 57 113 131 18 169 115 84 192 135 1 176 111 123 124 41 88 40 167 154 87 51 177 134 39
Route 3: 107 35 3 189 195 47 15 183 116 200 65 66 178 49 160 162 104 187 46 114 94 70 99 117 82 170 165 7 58 21 199 68
Route 4: 60 30 171 63 12 73 159 155 175 19 92 188 122 147 54 9 156 79 28 173 129 52 105
Route 5: 16 61 108 50 149 152 125 45 33 77 182 13 100 74 32 133 24 62 184 194 148 179 14 44 89 142 11 23 4 196 136
Route 6: 72 67 132 96 139 103 59 10 153 141 81 130 120 112 118 109 86 95 93 36
Route 7: 144 110 42 186 146 29 2 143 126 90 25 193 71 127 48 20 5 145 91 190 80 158 101 161 197 106 128 138 6 83
Vehicles: 7
Distance: 3515.07
